LSat/input.cnf
c random number generator seed: 5805136861424265470 
p cnf 2 4
-1 -2 0
1 2 0
-1 2 0
1 -2 0